c --- [ banner ] -------------------------------------------------------------
c 
c CaDiCaL Radically Simplified CDCL SAT Solver
c Copyright (c) 2016-2021 A. Biere, M. Fleury, N. Froleyks
c 
c Version 1.5.2 ca9bff05c11bde5eae4912f9932871d1527e61d8
c g++ (GCC) 9.3.0 -Wall -Wextra -O3 -DNDEBUG
c Thu Mar 31 01:52:53 EDT 2022 Linux gra-login3 3.10.0-1160.59.1.el7.x86_64 x86_64
c 
c --- [ limit ] --------------------------------------------------------------
c 
c setting conflict limit to 200000 conflicts (due to '200000')
c 
c --- [ parsing input ] ------------------------------------------------------
c 
c reading DIMACS file from '10.cubes1024.adj'
c opening file to read '10.cubes1024.adj'
c found 'p cnf 5320 922652' header
c parsed 922652 clauses in 7.63 seconds process time
c closing file '10.cubes1024.adj'
c after reading 673840309 bytes 642.6 MB
c 
c --- [ options ] ------------------------------------------------------------
c 
c all options are set to their default value
c 
c --- [ solving ] ------------------------------------------------------------
c 
c time measured in process time since initialization
c 
c  seconds   reductions  redundant  irredundant
c          MB    restarts       trail      variables
c           level   conflicts       glue        remaining
c 
c *  7.63 675  0 0   0    0    0  0% 0 922009 4135 78%
c {  8.35 715  0 0   0    0    0  0% 0 922009 4135 78%
c i  8.44 715 105 0   0    1    0 37% 0 922009 4129 78%
c i 10.51 753 92 0  17  130  116 49% 39 922009 4128 78%
c - 13.24 730 71 1  36  301  233 49% 35 225471 4128 78%
c i 13.37 731 71 1  36  312  243 49% 35 225471 4127 78%
c i 13.60 731 73 1  41  337  265 49% 36 225471 4126 78%
c i 13.63 706 73 1  42  341  268 49% 37 225471 4125 78%
c i 13.63 706 73 1  42  342  268 49% 37 225471 4124 78%
c i 13.89 706 71 1  45  371  295 49% 35 225471 4123 78%
c i 14.21 707 67 1  48  449  360 50% 35 225471 4122 77%
c i 14.21 707 67 1  48  450  360 50% 35 225471 4121 77%
c i 14.21 707 67 1  48  453  362 50% 35 225471 4120 77%
c i 14.31 707 64 1  48  485  385 50% 34 225471 4119 77%
c i 14.33 707 64 1  48  489  383 50% 33 225471 4118 77%
c i 14.42 707 59 1  48  566  447 50% 31 225471 4117 77%
c i 14.42 707 59 1  48  568  448 50% 31 225471 4116 77%
c i 14.44 707 58 1  48  585  460 50% 30 225471 4115 77%
c i 14.54 707 57 1  48  608  482 50% 30 225471 4114 77%
c i 14.65 707 56 1  48  647  516 50% 30 225471 4113 77%
c 
c  seconds   reductions  redundant   irredundant
c          MB    restarts       trail       variables
c           level   conflicts       glue         remaining
c 
c i 14.66 707 56 1  48  648  516 50% 30 225471 4112 77%
c i 15.09 708 56 1  56  756  600 51% 31 225471 4111 77%
c i 15.21 708 58 1  60  782  620 51% 30 225471 4107 77%
c i 15.28 708 59 1  62  823  657 50% 30 225471 4106 77%
c i 15.29 708 59 1  62  827  660 50% 30 225471 4105 77%
c i 15.30 708 59 1  62  832  664 50% 30 225471 4104 77%
c i 15.31 708 59 1  62  835  666 50% 30 225471 4103 77%
c i 15.35 708 60 1  63  845  675 50% 30 225471 4102 77%
c i 15.39 708 60 1  64  854  682 50% 30 225471 4101 77%
c i 15.41 708 60 1  65  861  688 50% 30 225471 4100 77%
c i 15.50 708 60 1  68  881  707 50% 30 225471 4099 77%
c i 15.75 708 60 1  68  963  772 50% 30 225471 4098 77%
c i 15.79 708 60 1  68  985  792 50% 30 225471 4097 77%
c } 15.85 709 60 1  68 1002  808 50% 29 225471 4097 77%
c [ 15.85 709  0 1  68 1002  808  0% 0 225471 4097 77%
c O 15.86 709  2 1  68 1003  809 25% 1 225471 4097 77%
c i 15.86 709  1 1  68 1008  813 26% 1 225471 4076 77%
c i 15.86 709  1 1  68 1009  813 26% 1 225471 4037 76%
c - 16.49 767 13 2  68 1112  726 44% 9 224515 4036 76%
c i 16.60 767 14 2  68 1144  752 47% 10 224515 4035 76%
c 
c  seconds   reductions  redundant   irredundant
c          MB    restarts       trail       variables
c           level   conflicts       glue         remaining
c 
c i 16.67 767 16 2  68 1233  820 51% 12 224515 4034 76%
c i 16.67 767 16 2  68 1234  820 51% 12 224515 4033 76%
c i 16.68 767 16 2  68 1241  823 52% 12 224515 4032 76%
c i 16.68 767 16 2  68 1254  832 52% 12 224515 4031 76%
c i 16.77 767 17 2  68 1418  935 54% 14 224515 4030 76%
c i 16.81 767 18 2  68 1502 1006 55% 15 224515 4029 76%
c i 16.83 767 18 2  68 1576 1071 55% 15 224515 4028 76%
c i 16.86 767 18 2  68 1638 1118 55% 15 224515 4027 76%
c i 16.92 767 20 2  68 1778 1229 55% 17 224515 4026 76%
c i 16.99 767 21 2  68 1989 1397 56% 18 224515 4025 76%
c i 17.06 767 21 2  69 2044 1433 56% 18 224515 4024 76%
c i 17.15 767 21 2  69 2241 1566 56% 18 224515 4023 76%
c i 17.15 767 21 2  69 2249 1570 56% 18 224515 4022 76%
c i 17.15 767 21 2  69 2251 1571 56% 18 224515 4021 76%
c i 17.16 767 21 2  69 2259 1572 56% 18 224515 4020 76%
c - 17.40 764 21 3  69 2328 1241 56% 18 224467 4020 76%
c i 17.55 764 21 3  69 2334 1246 42% 18 224467 4019 76%
c i 17.72 764 21 3  69 2676 1406 42% 18 224467 4018 76%
c i 17.77 764 22 3  69 2800 1472 42% 19 224467 4017 76%
c ] 17.84 764 22 3  69 3002 1603 42% 19 224467 4017 76%
c 
c  seconds   reductions  redundant   irredundant
c          MB    restarts       trail       variables
c           level   conflicts       glue         remaining
c 
c { 17.84 764 60 3  69 3002 1603 67% 29 224467 4017 76%
c F 17.85 764 60 3  69 3004 1605 67% 29 224467 4017 76%
c i 18.77 764 55 3 100 3509 1875 53% 27 224467 4016 75%
c i 18.78 764 55 3 102 3515 1878 53% 27 224467 4015 75%
c i 18.90 764 55 3 118 3578 1929 52% 28 224467 4014 75%
c i 19.08 764 56 3 130 3630 1975 52% 28 224467 4013 75%
c i 19.21 764 57 3 136 3656 1995 51% 28 224467 4012 75%
c i 19.29 764 58 3 141 3674 2012 51% 29 224467 4011 75%
c i 19.35 764 57 3 148 3706 2041 51% 28 224467 4010 75%
c - 19.89 761 55 4 153 3950 1556 50% 28 224437 4010 75%
c i 20.26 762 52 4 154 4280 1818 48% 27 224437 4009 75%
c i 20.27 762 51 4 154 4318 1854 48% 27 224437 4008 75%
c i 20.73 762 52 4 186 4450 1963 48% 28 224437 4007 75%
c i 20.93 762 53 4 192 4502 2008 47% 28 224437 4006 75%
c 3 21.54 762 49 4 192 5004 4200 46% 27 224403 3995 75%
c 2 21.59 762 49 4 192 5004 4566 46% 27 224343 3995 75%
c p 23.65 762 49 4 192 5004 10199 46% 27 224343 3914 74%
c d 24.01 761 49 4 192 5004 10076 46% 27 223906 3910 73%
c - 25.22 756 46 5 215 5976 2428 45% 26 223906 3910 73%
c # 25.28 756 45 5 219 6005 2452 45% 26 223906 3910 73%
c 
c  seconds   reductions  redundant   irredundant
c          MB    restarts       trail       variables
c           level   conflicts       glue         remaining
c 
c } 26.97 756 48 5 307 7002 3325 44% 27 223906 3910 73%
c [ 26.97 756 22 5 307 7002 3325 42% 19 223906 3910 73%
c - 27.84 667 29 6 308 8408 3049 41% 25 223906 3910 73%
c I 29.42 667 30 6 309 10010 4181 41% 26 223906 3910 73%
c - 31.68 756 33 7 311 11243 3447 40% 28 223906 3910 73%
c - 33.86 667 35 8 312 14484 3821 40% 30 223906 3910 73%
c ] 34.38 667 35 8 312 15006 4152 40% 30 223906 3910 73%
c { 34.38 667 48 8 312 15006 4152 44% 27 223906 3910 73%
c 2 34.43 667 48 8 313 15006 6306 44% 27 223899 3910 73%
c p 35.85 667 48 8 313 15006 11646 44% 27 223899 3910 73%
c B 36.06 667 48 8 314 15012 11652 44% 27 223899 3910 73%
c s 36.78 667 45 8 327 15606 11780 44% 26 221817 3910 73%
c v 40.36 667 45 8 327 15606 11780 44% 26 221765 3910 73%
c t 40.51 667 45 8 327 15606 11764 44% 26 221718 3910 73%
c e 41.01 668 45 8 327 15606 6093 44% 26 216022 1139 21%
c s 41.10 668 45 8 327 15606 6093 44% 26 215818 1139 21%
c - 42.82 668 35 9 327 18133 4180 69% 22 215818 1139 21%
c W 44.21 668 29 9 327 21013 5913 68% 19 215818 1139 21%
c - 44.48 756 28 10 327 22135 4199 68% 18 215818 1139 21%
c - 45.81 668 24 11 327 26537 4586 68% 17 215818 1139 21%
c 
c  seconds   reductions    redundant   irredundant
c          MB     restarts        trail       variables
c           level     conflicts       glue         remaining
c 
c F 46.47 668 23 11 336 28015 5434 68% 16 215818 1139 21%
c 3 48.84 668 23 11 424 30007 7253 68% 16 215818 1139 21%
c p 51.19 668 23 11 424 30007 9120 68% 16 215818 1135 21%
c d 51.42 668 23 11 424 30007 9013 68% 16 214683 1134 21%
c } 52.11 668 23 11 431 31006 9616 68% 16 214683 1134 21%
c [ 52.11 668 35 11 431 31006 9616 141% 30 214683 1134 21%
c - 52.50 756 34 12 431 31341 5225 138% 29 214683 1134 21%
c B 54.09 756 29 12 434 36021 8113 113% 25 214683 1134 21%
c - 54.39 668 30 13 434 36535 5972 111% 25 214683 1134 21%
c ] 54.96 668 29 13 434 37295 6516 109% 25 214683 1134 21%
c 1 54.96 668 29 13 434 37295 6516 109% 25 214683 1134 21%
c 
c --- [ writing output ] -----------------------------------------------------
c 
c writing simplified CNF to DIMACS file 'simp/10.cubes1024.adj.simp1'
c * 54.96 668 29 13 434 37295 6516 109% 25 214683 1134 21%
c opening file to write 'simp/10.cubes1024.adj.simp1'
c writing 'p cnf 5320 214683' header
c closing file 'simp/10.cubes1024.adj.simp1'
c after writing 97988066 bytes 93.4 MB
c wrote 214683 clauses in 0.59 seconds process time
c 
c --- [ writing extension ] --------------------------------------------------
c 
c writing extension stack to 'simp/10.cubes1024.adj.ext1'
c opening file to write 'simp/10.cubes1024.adj.ext1'
c closing file 'simp/10.cubes1024.adj.ext1'
c after writing 176462 bytes 0.2 MB
c wrote 7733 witnesses in 0.00 seconds process time
c 
c --- [ result ] -------------------------------------------------------------
c 
s SATISFIABLE
c 
c --- [ run-time profiling ] -------------------------------------------------
c 
c process time taken by individual solving procedures
c (percentage relative to process time for solving)
c 
c        35.59   75.20% search
c        22.56   47.66% unstable
c        12.24   25.87% stable
c        11.74   24.80% simplify
c         7.63   16.12% parse
c         5.80   12.25% probe
c         3.70    7.82% vivify
c         0.91    1.92% elim
c         0.72    1.51% lucky
c         0.18    0.38% subsume
c         0.10    0.22% ternary
c         0.07    0.15% walk
c   =================================
c        47.33   85.20% solve
c 
c last line shows process time for solving
c (percentage relative to total process time)
c 
c --- [ statistics ] ---------------------------------------------------------
c 
c chronological:              5716        15.33 %  of conflicts
c conflicts:                 37295       788.02    per second
c decisions:                 78865      1666.36    per second
c eliminated:                 2771        52.09 %  of all variables
c fixed:                      1399        26.30 %  of all variables
c learned:                   36619        98.19 %  per conflict
c learned_lits:            8261104       100.00 %  learned literals
c minimized:                     0         0.00 %  learned literals
c shrunken:                6260570        75.78 %  learned literals
c minishrunken:             378242         4.58 %  learned literals
c propagations:            5107789         0.11 M  per second
c reduced:                   17653        47.33 %  per conflict
c rephased:                      8      4661.88    interval
c restarts:                    434        85.93    interval
c stabilizing:                   3        43.69 %  of conflicts
c substituted:                  16         0.30 %  of all variables
c subsumed:                  15498         0.76 %  of all clauses
c strengthened:              10198         0.50 %  of all clauses
c ternary:                    4959         0.48 %  of resolved
c vivified:                     70         0.00 %  of all clauses
c walked:                        1     37295.00    interval
c weakened:                   6334         3.11    average size
c 
c seconds are measured in process time for solving
c 
c --- [ resources ] ----------------------------------------------------------
c 
c total process time since initialization:        55.55    seconds
c total real time since initialization:           55.77    seconds
c maximum resident set size of process:          863.98    MB
c 
c --- [ shutting down ] ------------------------------------------------------
c 
c exit 10
WARNING! DIMACS header mismatch: wrong number of variables.
============================[ Problem Statistics ]=============================
|                                                                             |
|  Number of variables:          3177                                         |
|  Number of clauses:          214685                                         |
|  Parse time:                   1.40 s                                       |
|  Simplification time:          0.03 s                                       |
|                                                                             |
============================[ Search Statistics ]====================================================
| Conflicts |          ORIGINAL         |          LEARNT          | Num Sols |      SUBGRAPHS      |
|           |    Vars  Clauses Literals |    Limit  Clauses Lit/Cl |          | Canonical Noncanon. |
=====================================================================================================
|       101 |    3105   214686 21962523 |     2000      101    118 |        0 |        17         1 |
|       253 |    3105   214688 21962586 |     2000      253    121 |        0 |        26         3 |
|       526 |    3105   214736 21963662 |     2000      526    120 |        0 |        32        51 |
|       873 |    3105   214746 21963963 |     2000      873    132 |        0 |        33        61 |
|      1387 |    3105   214754 21964392 |     2000     1387    131 |        0 |        48        69 |
|      5327 |    3105   217935 22039223 |     5004     2531     21 |        0 |      1036      3250 |
|      6855 |    3105   218324 22047129 |     5004     4059     41 |        0 |      1159      3639 |
|      8837 |    3105   218598 22053139 |     6303     3540     46 |        0 |      1228      3913 |
|     11487 |    3105   218686 22055219 |     6303     6190     73 |        0 |      1316      4001 |
|     17955 |    3105   221310 22116635 |     8782     5737     48 |        0 |      2110      6625 |
|     23968 |    3105   221557 22123699 |     9992     7360     60 |        0 |      2245      6872 |
|     36969 |    3105   225909 22229376 |    12407     9776     50 |        0 |      3113     11224 |
|     50456 |    3105   226422 22239798 |    14805    10261     56 |        0 |      3360     11737 |
|     70085 |    3105   226590 22244119 |    17220    14505     69 |        0 |      3481     11905 |
|    100174 |    3105   227487 22262477 |    20824    16998     71 |        0 |      3694     12802 |
|    148132 |    3105   231656 22349100 |    25615    19747     73 |        0 |      4506     16971 |
|    214925 |    3105   232765 22370339 |    31605    16530     49 |        0 |      4857     18080 |
|    313874 |    3105   233188 22379635 |    37615    30489     82 |        0 |      5106     18503 |
|    462314 |    3105   233839 22395525 |    46013    34727     82 |        0 |      5486     19154 |
|    688450 |    3105   238292 22492187 |    56811    32261     67 |        0 |      6919     23607 |
|   1024226 |    3105   241543 22568526 |    68818    57044     89 |        0 |      8124     26858 |
|   1527872 |    3105   246401 22697603 |    84416    66688     82 |        0 |     10777     31716 |
|   2333590 |    3105   303937 23685607 |   104818    73408     73 |        0 |     15590     89252 |
|   3485884 |    3105   333957 24362277 |   127608   127492     92 |        0 |     21701    119272 |
|   5264766 |    3105   429428 26505523 |   157625   131391     73 |        0 |     40074    214743 |
|   7909899 |    3105   549445 29497017 |   193615   151514     66 |        1 |     59484    334759 |
|  12808170 |    3089  1615158 47735100 |   246417   222987     68 |        2 |    100325   1445354 |
|  18868023 |    3073  1983218 54867155 |   294120   289343     78 |        4 |    118368   1823693 |
=====================================================================================================
Number of solutions   : 4
Canonical subgraphs   : 145123         (25 /sec)
          order  3    : 1              (250000 /sec)
          order  4    : 1              (500000 /sec)
          order  5    : 1              (250000 /sec)
          order  6    : 1              (55556 /sec)
          order  7    : 2              (10101 /sec)
          order  8    : 6              (2597 /sec)
          order  9    : 16             (678 /sec)
          order 10    : 62             (197 /sec)
          order 11    : 330            (67 /sec)
          order 12    : 1576           (22 /sec)
          order 13    : 10590          (23 /sec)
          order 14    : 102983         (24 /sec)
          order 15    : 23119          (29 /sec)
          order 16    : 6050           (26 /sec)
          order 17    : 273            (21 /sec)
          order 18    : 40             (18 /sec)
          order 19    : 30             (17 /sec)
          order 20    : 38             (21 /sec)
          order 21    : 4              (1 /sec)
Noncanonical subgraphs: 2616780        (187 /sec)
          order  3    : 0              (-nan /sec)
          order  4    : 0              (-nan /sec)
          order  5    : 0              (-nan /sec)
          order  6    : 0              (-nan /sec)
          order  7    : 0              (-nan /sec)
          order  8    : 0              (-nan /sec)
          order  9    : 0              (-nan /sec)
          order 10    : 0              (-nan /sec)
          order 11    : 0              (-nan /sec)
          order 12    : 0              (-nan /sec)
          order 13    : 36713          (3233 /sec)
          order 14    : 201350         (1262 /sec)
          order 15    : 2365452        (172 /sec)
          order 16    : 12886          (261 /sec)
          order 17    : 276            (182 /sec)
          order 18    : 44             (58 /sec)
          order 19    : 5              (215 /sec)
          order 20    : 6              (108 /sec)
Canonicity checking   : 5841.57 s
Noncanonicity checking: 13972.2 s
Total canonicity time : 19813.8 s
database reductions   : 279
restarts              : 32767
conflicts             : 23832163       (793 /sec)
decisions             : 30690479       (0.00 % random) (1021 /sec)
propagations          : 1249083221     (41538 /sec)
conflict literals     : 2749277225     (56.89 % deleted)
actual reward         : 0.221354
Memory used           : 1101.00 MB
CPU time              : 30070.6 s

UNSATISFIABLE
